GLPSOL--GLPK LP/MIP Solver 5.0
Parameter(s) specified in the command line:
 --lp ../modeles/20_214.lp --log 20_214.log
Reading problem data from '../modeles/20_214.lp'...
4361 rows, 8600 columns, 30020 non-zeros
4280 integer variables, all of which are binary
12987 lines were read
GLPK Integer Optimizer 5.0
4361 rows, 8600 columns, 30020 non-zeros
4280 integer variables, all of which are binary
Preprocessing...
4200 constraint coefficient(s) were reduced
4361 rows, 8580 columns, 30000 non-zeros
4280 integer variables, all of which are binary
Scaling...
 A: min|aij| =  3.494e-04  max|aij| =  4.000e+00  ratio =  1.145e+04
GM: min|aij| =  9.667e-02  max|aij| =  1.034e+01  ratio =  1.070e+02
EQ: min|aij| =  9.346e-03  max|aij| =  1.000e+00  ratio =  1.070e+02
2N: min|aij| =  7.812e-03  max|aij| =  1.745e+00  ratio =  2.234e+02
Constructing initial basis...
Size of triangular part is 4361
Solving LP relaxation...
GLPK Simplex Optimizer 5.0
4361 rows, 8580 columns, 30000 non-zeros
      0: obj =   4.000000000e+01 inf =   9.950e+01 (41)
Perturbing LP to avoid stalling [199]...
    299: obj =  -6.248634954e-02 inf =   0.000e+00 (0)
Removing LP perturbation [1072]...
*  1072: obj =  -4.471556278e+00 inf =   7.308e-15 (0) 1
OPTIMAL LP SOLUTION FOUND
Integer optimization begins...
Long-step dual simplex will be used
+  1072: mip =     not found yet >=              -inf        (1; 0)
+  1101: >>>>>  -4.471556278e+00 >=  -4.471556278e+00   0.0% (29; 0)
+  1101: mip =  -4.471556278e+00 >=     tree is empty   0.0% (0; 57)
INTEGER OPTIMAL SOLUTION FOUND
Time used:   0.5 secs
Memory used: 12.5 Mb (13115390 bytes)
